c generated by sgen
p cnf 85 180
-2 -3 -4 0
-1 -3 -4 0
-1 -2 -4 0
-1 -2 -3 0
-6 -7 -8 0
-5 -7 -8 0
-5 -6 -8 0
-5 -6 -7 0
-10 -11 -12 0
-9 -11 -12 0
-9 -10 -12 0
-9 -10 -11 0
-14 -15 -16 0
-13 -15 -16 0
-13 -14 -16 0
-13 -14 -15 0
-18 -19 -20 0
-17 -19 -20 0
-17 -18 -20 0
-17 -18 -19 0
-22 -23 -24 0
-21 -23 -24 0
-21 -22 -24 0
-21 -22 -23 0
-26 -27 -28 0
-25 -27 -28 0
-25 -26 -28 0
-25 -26 -27 0
-30 -31 -32 0
-29 -31 -32 0
-29 -30 -32 0
-29 -30 -31 0
-34 -35 -36 0
-33 -35 -36 0
-33 -34 -36 0
-33 -34 -35 0
-38 -39 -40 0
-37 -39 -40 0
-37 -38 -40 0
-37 -38 -39 0
-42 -43 -44 0
-41 -43 -44 0
-41 -42 -44 0
-41 -42 -43 0
-46 -47 -48 0
-45 -47 -48 0
-45 -46 -48 0
-45 -46 -47 0
-50 -51 -52 0
-49 -51 -52 0
-49 -50 -52 0
-49 -50 -51 0
-54 -55 -56 0
-53 -55 -56 0
-53 -54 -56 0
-53 -54 -55 0
-58 -59 -60 0
-57 -59 -60 0
-57 -58 -60 0
-57 -58 -59 0
-62 -63 -64 0
-61 -63 -64 0
-61 -62 -64 0
-61 -62 -63 0
-66 -67 -68 0
-65 -67 -68 0
-65 -66 -68 0
-65 -66 -67 0
-70 -71 -72 0
-69 -71 -72 0
-69 -70 -72 0
-69 -70 -71 0
-74 -75 -76 0
-73 -75 -76 0
-73 -74 -76 0
-73 -74 -75 0
-78 -79 -80 0
-77 -79 -80 0
-77 -78 -80 0
-77 -78 -79 0
-81 -82 -83 0
-81 -82 -84 0
-81 -82 -85 0
-81 -83 -84 0
-81 -83 -85 0
-81 -84 -85 0
-82 -83 -84 0
-82 -83 -85 0
-82 -84 -85 0
-83 -84 -85 0
21 17 84 0
61 17 84 0
61 21 84 0
61 21 17 0
36 66 32 0
11 66 32 0
11 36 32 0
11 36 66 0
71 56 58 0
51 56 58 0
51 71 58 0
51 71 56 0
12 72 64 0
14 72 64 0
14 12 64 0
14 12 72 0
26 76 85 0
35 76 85 0
35 26 85 0
35 26 76 0
83 52 30 0
44 52 30 0
44 83 30 0
44 83 52 0
77 39 20 0
43 39 20 0
43 77 20 0
43 77 39 0
40 81 33 0
70 81 33 0
70 40 33 0
70 40 81 0
2 42 27 0
69 42 27 0
69 2 27 0
69 2 42 0
19 13 60 0
31 13 60 0
31 19 60 0
31 19 13 0
79 74 1 0
29 74 1 0
29 79 1 0
29 79 74 0
78 8 68 0
63 8 68 0
63 78 68 0
63 78 8 0
73 45 55 0
62 45 55 0
62 73 55 0
62 73 45 0
4 15 54 0
65 15 54 0
65 4 54 0
65 4 15 0
7 59 82 0
46 59 82 0
46 7 82 0
46 7 59 0
28 38 6 0
53 38 6 0
53 28 6 0
53 28 38 0
16 80 22 0
49 80 22 0
49 16 22 0
49 16 80 0
34 41 48 0
24 41 48 0
24 34 48 0
24 34 41 0
50 47 25 0
67 47 25 0
67 50 25 0
67 50 47 0
5 75 18 0
10 75 18 0
10 5 18 0
10 5 75 0
9 23 37 0
9 23 57 0
9 23 3 0
9 37 57 0
9 37 3 0
9 57 3 0
23 37 57 0
23 37 3 0
23 57 3 0
37 57 3 0
